MARKOV
30
3 3 3 3 3 3 3 3 3 3 3 3 3 3 3 3 3 3 3 3 3 3 3 3 3 3 3 3 3 3
81
2 0 5
2 0 15
2 0 17
2 0 18
2 0 23
2 0 24
2 1 4
2 1 21
2 1 27
2 2 3
2 2 6
2 2 8
2 2 14
2 2 19
2 2 25
2 3 6
2 3 7
2 3 8
2 3 14
2 3 19
2 3 21
2 3 25
2 4 9
2 4 13
2 4 27
2 5 15
2 5 17
2 5 18
2 5 23
2 6 7
2 6 8
2 6 10
2 6 14
2 6 21
2 6 25
2 6 29
2 7 8
2 7 10
2 7 11
2 7 19
2 7 21
2 7 26
2 7 28
2 7 29
2 8 10
2 8 14
2 8 19
2 8 21
2 8 25
2 8 26
2 9 13
2 9 27
2 10 11
2 10 19
2 10 21
2 10 26
2 10 28
2 10 29
2 11 28
2 11 29
2 12 20
2 12 28
2 13 27
2 14 25
2 15 16
2 15 17
2 15 22
2 15 24
2 16 22
2 16 24
2 16 27
2 17 18
2 17 23
2 17 24
2 18 23
2 19 26
2 20 26
2 21 29
2 22 24
2 26 28
2 28 29
9
0.0001
1.0
1.0
1.0
0.0001
1.0
1.0
1.0
0.0001

9
0.0001
1.0
1.0
1.0
0.0001
1.0
1.0
1.0
0.0001

9
0.0001
1.0
1.0
1.0
0.0001
1.0
1.0
1.0
0.0001

9
0.0001
1.0
1.0
1.0
0.0001
1.0
1.0
1.0
0.0001

9
0.0001
1.0
1.0
1.0
0.0001
1.0
1.0
1.0
0.0001

9
0.0001
1.0
1.0
1.0
0.0001
1.0
1.0
1.0
0.0001

9
0.0001
1.0
1.0
1.0
0.0001
1.0
1.0
1.0
0.0001

9
0.0001
1.0
1.0
1.0
0.0001
1.0
1.0
1.0
0.0001

9
0.0001
1.0
1.0
1.0
0.0001
1.0
1.0
1.0
0.0001

9
0.0001
1.0
1.0
1.0
0.0001
1.0
1.0
1.0
0.0001

9
0.0001
1.0
1.0
1.0
0.0001
1.0
1.0
1.0
0.0001

9
0.0001
1.0
1.0
1.0
0.0001
1.0
1.0
1.0
0.0001

9
0.0001
1.0
1.0
1.0
0.0001
1.0
1.0
1.0
0.0001

9
0.0001
1.0
1.0
1.0
0.0001
1.0
1.0
1.0
0.0001

9
0.0001
1.0
1.0
1.0
0.0001
1.0
1.0
1.0
0.0001

9
0.0001
1.0
1.0
1.0
0.0001
1.0
1.0
1.0
0.0001

9
0.0001
1.0
1.0
1.0
0.0001
1.0
1.0
1.0
0.0001

9
0.0001
1.0
1.0
1.0
0.0001
1.0
1.0
1.0
0.0001

9
0.0001
1.0
1.0
1.0
0.0001
1.0
1.0
1.0
0.0001

9
0.0001
1.0
1.0
1.0
0.0001
1.0
1.0
1.0
0.0001

9
0.0001
1.0
1.0
1.0
0.0001
1.0
1.0
1.0
0.0001

9
0.0001
1.0
1.0
1.0
0.0001
1.0
1.0
1.0
0.0001

9
0.0001
1.0
1.0
1.0
0.0001
1.0
1.0
1.0
0.0001

9
0.0001
1.0
1.0
1.0
0.0001
1.0
1.0
1.0
0.0001

9
0.0001
1.0
1.0
1.0
0.0001
1.0
1.0
1.0
0.0001

9
0.0001
1.0
1.0
1.0
0.0001
1.0
1.0
1.0
0.0001

9
0.0001
1.0
1.0
1.0
0.0001
1.0
1.0
1.0
0.0001

9
0.0001
1.0
1.0
1.0
0.0001
1.0
1.0
1.0
0.0001

9
0.0001
1.0
1.0
1.0
0.0001
1.0
1.0
1.0
0.0001

9
0.0001
1.0
1.0
1.0
0.0001
1.0
1.0
1.0
0.0001

9
0.0001
1.0
1.0
1.0
0.0001
1.0
1.0
1.0
0.0001

9
0.0001
1.0
1.0
1.0
0.0001
1.0
1.0
1.0
0.0001

9
0.0001
1.0
1.0
1.0
0.0001
1.0
1.0
1.0
0.0001

9
0.0001
1.0
1.0
1.0
0.0001
1.0
1.0
1.0
0.0001

9
0.0001
1.0
1.0
1.0
0.0001
1.0
1.0
1.0
0.0001

9
0.0001
1.0
1.0
1.0
0.0001
1.0
1.0
1.0
0.0001

9
0.0001
1.0
1.0
1.0
0.0001
1.0
1.0
1.0
0.0001

9
0.0001
1.0
1.0
1.0
0.0001
1.0
1.0
1.0
0.0001

9
0.0001
1.0
1.0
1.0
0.0001
1.0
1.0
1.0
0.0001

9
0.0001
1.0
1.0
1.0
0.0001
1.0
1.0
1.0
0.0001

9
0.0001
1.0
1.0
1.0
0.0001
1.0
1.0
1.0
0.0001

9
0.0001
1.0
1.0
1.0
0.0001
1.0
1.0
1.0
0.0001

9
0.0001
1.0
1.0
1.0
0.0001
1.0
1.0
1.0
0.0001

9
0.0001
1.0
1.0
1.0
0.0001
1.0
1.0
1.0
0.0001

9
0.0001
1.0
1.0
1.0
0.0001
1.0
1.0
1.0
0.0001

9
0.0001
1.0
1.0
1.0
0.0001
1.0
1.0
1.0
0.0001

9
0.0001
1.0
1.0
1.0
0.0001
1.0
1.0
1.0
0.0001

9
0.0001
1.0
1.0
1.0
0.0001
1.0
1.0
1.0
0.0001

9
0.0001
1.0
1.0
1.0
0.0001
1.0
1.0
1.0
0.0001

9
0.0001
1.0
1.0
1.0
0.0001
1.0
1.0
1.0
0.0001

9
0.0001
1.0
1.0
1.0
0.0001
1.0
1.0
1.0
0.0001

9
0.0001
1.0
1.0
1.0
0.0001
1.0
1.0
1.0
0.0001

9
0.0001
1.0
1.0
1.0
0.0001
1.0
1.0
1.0
0.0001

9
0.0001
1.0
1.0
1.0
0.0001
1.0
1.0
1.0
0.0001

9
0.0001
1.0
1.0
1.0
0.0001
1.0
1.0
1.0
0.0001

9
0.0001
1.0
1.0
1.0
0.0001
1.0
1.0
1.0
0.0001

9
0.0001
1.0
1.0
1.0
0.0001
1.0
1.0
1.0
0.0001

9
0.0001
1.0
1.0
1.0
0.0001
1.0
1.0
1.0
0.0001

9
0.0001
1.0
1.0
1.0
0.0001
1.0
1.0
1.0
0.0001

9
0.0001
1.0
1.0
1.0
0.0001
1.0
1.0
1.0
0.0001

9
0.0001
1.0
1.0
1.0
0.0001
1.0
1.0
1.0
0.0001

9
0.0001
1.0
1.0
1.0
0.0001
1.0
1.0
1.0
0.0001

9
0.0001
1.0
1.0
1.0
0.0001
1.0
1.0
1.0
0.0001

9
0.0001
1.0
1.0
1.0
0.0001
1.0
1.0
1.0
0.0001

9
0.0001
1.0
1.0
1.0
0.0001
1.0
1.0
1.0
0.0001

9
0.0001
1.0
1.0
1.0
0.0001
1.0
1.0
1.0
0.0001

9
0.0001
1.0
1.0
1.0
0.0001
1.0
1.0
1.0
0.0001

9
0.0001
1.0
1.0
1.0
0.0001
1.0
1.0
1.0
0.0001

9
0.0001
1.0
1.0
1.0
0.0001
1.0
1.0
1.0
0.0001

9
0.0001
1.0
1.0
1.0
0.0001
1.0
1.0
1.0
0.0001

9
0.0001
1.0
1.0
1.0
0.0001
1.0
1.0
1.0
0.0001

9
0.0001
1.0
1.0
1.0
0.0001
1.0
1.0
1.0
0.0001

9
0.0001
1.0
1.0
1.0
0.0001
1.0
1.0
1.0
0.0001

9
0.0001
1.0
1.0
1.0
0.0001
1.0
1.0
1.0
0.0001

9
0.0001
1.0
1.0
1.0
0.0001
1.0
1.0
1.0
0.0001

9
0.0001
1.0
1.0
1.0
0.0001
1.0
1.0
1.0
0.0001

9
0.0001
1.0
1.0
1.0
0.0001
1.0
1.0
1.0
0.0001

9
0.0001
1.0
1.0
1.0
0.0001
1.0
1.0
1.0
0.0001

9
0.0001
1.0
1.0
1.0
0.0001
1.0
1.0
1.0
0.0001

9
0.0001
1.0
1.0
1.0
0.0001
1.0
1.0
1.0
0.0001

9
0.0001
1.0
1.0
1.0
0.0001
1.0
1.0
1.0
0.0001

